<number of tasks>
28

<cycle time>
138

<task times>
1 70
2 59
3 33
4 6
5 1
6 27
7 17
8 62
9 31
10 53
11 21
12 19
13 108
14 52
15 5
16 8
17 97
18 8
19 47
20 67
21 17
22 8
23 3
24 21
25 107
26 3
27 2
28 72

<precedence relations>
1,2
1,3
1,4
1,5
1,8
1,19
1,21
1,22
1,23
1,24
1,26
2,6
2,17
3,28
4,28
5,28
6,7
7,18
8,9
9,10
10,11
10,12
11,15
12,13
13,14
13,16
14,28
15,28
16,28
17,28
18,28
19,20
20,28
21,28
22,28
23,28
24,25
25,28
26,27
27,28

<setup times forward>
1,2:11
1,3:4
1,5:9
1,19:11
1,21:4
1,22:4
1,23:6
1,24:4
1,26:4
2,3:15
2,4:11
2,5:20
2,6:15
2,8:11
2,10:15
2,11:11
2,12:17
2,13:11
2,14:20
2,15:20
2,16:20
2,17:17
2,20:8
2,21:7
2,22:7
2,23:17
2,24:15
2,25:7
2,26:15
2,27:17
3,2:15
3,4:4
3,5:5
3,7:2
3,8:4
3,9:15
3,11:4
3,12:2
3,13:4
3,14:5
3,15:5
3,16:5
3,17:2
3,18:4
3,19:15
3,20:7
3,21:8
3,22:8
3,23:2
3,25:8
3,27:2
3,28:5
4,2:11
4,3:4
4,5:9
4,6:4
4,7:6
4,9:11
4,10:4
4,12:6
4,14:9
4,15:9
4,16:9
4,17:6
4,19:11
4,20:3
4,21:4
4,22:4
4,23:6
4,24:4
4,25:4
4,26:4
4,27:6
4,28:9
5,2:20
5,3:5
5,4:9
5,6:5
5,7:3
5,8:9
5,9:20
5,10:5
5,11:9
5,12:3
5,13:9
5,17:3
5,18:9
5,19:20
5,20:12
5,21:13
5,22:13
5,23:3
5,24:5
5,25:13
5,26:5
5,27:3
6,4:4
6,5:5
6,7:2
6,8:4
6,9:15
6,11:4
6,12:2
6,13:4
6,14:5
6,15:5
6,16:5
6,17:2
6,19:15
6,20:7
6,21:8
6,22:8
6,23:2
6,25:8
6,27:2
7,3:2
7,4:6
7,5:3
7,8:6
7,9:17
7,10:2
7,11:6
7,13:6
7,14:3
7,15:3
7,16:3
7,18:6
7,19:17
7,20:9
7,21:10
7,22:10
7,24:2
7,25:10
7,26:2
8,2:11
8,3:4
8,5:9
8,6:4
8,7:6
8,9:11
8,17:6
8,19:11
8,20:3
8,21:4
8,22:4
8,23:6
8,24:4
8,25:4
8,26:4
8,27:6
9,3:15
9,4:11
9,5:20
9,6:15
9,7:17
9,10:15
9,17:17
9,18:11
9,20:8
9,21:7
9,22:7
9,23:17
9,24:15
9,25:7
9,26:15
9,27:17
10,2:15
10,4:4
10,5:5
10,7:2
10,11:4
10,12:2
10,17:2
10,18:4
10,19:15
10,20:7
10,21:8
10,22:8
10,23:2
10,25:8
10,27:2
11,2:11
11,3:4
11,5:9
11,6:4
11,7:6
11,12:6
11,14:9
11,15:9
11,16:9
11,17:6
11,19:11
11,20:3
11,21:4
11,22:4
11,23:6
11,24:4
11,25:4
11,26:4
11,27:6
12,2:17
12,3:2
12,4:6
12,5:3
12,6:2
12,11:6
12,13:6
12,15:3
12,18:6
12,19:17
12,20:9
12,21:10
12,22:10
12,24:2
12,25:10
12,26:2
13,2:11
13,3:4
13,5:9
13,6:4
13,7:6
13,14:9
13,15:9
13,16:9
13,17:6
13,19:11
13,20:3
13,21:4
13,22:4
13,23:6
13,24:4
13,25:4
13,26:4
13,27:6
14,2:20
14,3:5
14,4:9
14,6:5
14,7:3
14,11:9
14,17:3
14,18:9
14,19:20
14,20:12
14,21:13
14,22:13
14,23:3
14,24:5
14,25:13
14,26:5
14,27:3
15,2:20
15,3:5
15,4:9
15,6:5
15,7:3
15,12:3
15,13:9
15,17:3
15,18:9
15,19:20
15,20:12
15,21:13
15,22:13
15,23:3
15,24:5
15,25:13
15,26:5
15,27:3
16,2:20
16,3:5
16,4:9
16,6:5
16,7:3
16,11:9
16,17:3
16,18:9
16,19:20
16,20:12
16,21:13
16,22:13
16,23:3
16,24:5
16,25:13
16,26:5
16,27:3
17,3:2
17,4:6
17,5:3
17,6:2
17,8:6
17,9:17
17,10:2
17,11:6
17,13:6
17,14:3
17,15:3
17,16:3
17,18:6
17,19:17
17,20:9
17,21:10
17,22:10
17,24:2
17,25:10
17,26:2
17,28:3
18,3:4
18,5:9
18,9:11
18,10:4
18,12:6
18,14:9
18,15:9
18,16:9
18,17:6
18,19:11
18,20:3
18,21:4
18,22:4
18,23:6
18,24:4
18,25:4
18,26:4
18,27:6
18,28:9
19,3:15
19,4:11
19,5:20
19,6:15
19,7:17
19,8:11
19,10:15
19,11:11
19,12:17
19,13:11
19,14:20
19,15:20
19,16:20
19,17:17
19,18:11
19,20:8
19,21:7
19,22:7
19,23:17
19,24:15
19,25:7
19,26:15
19,27:17
20,2:8
20,3:7
20,4:3
20,5:12
20,6:7
20,7:9
20,8:3
20,9:8
20,10:7
20,11:3
20,12:9
20,13:3
20,14:12
20,15:12
20,16:12
20,17:9
20,18:3
20,21:1
20,22:1
20,23:9
20,24:7
20,25:1
20,26:7
20,27:9
20,28:12
21,2:7
21,3:8
21,4:4
21,5:13
21,6:8
21,7:10
21,8:4
21,9:7
21,10:8
21,11:4
21,12:10
21,13:4
21,14:13
21,15:13
21,16:13
21,17:10
21,18:4
21,19:7
21,20:1
21,23:10
21,24:8
21,26:8
21,27:10
21,28:13
22,2:7
22,3:8
22,4:4
22,5:13
22,6:8
22,7:10
22,8:4
22,9:7
22,10:8
22,11:4
22,12:10
22,13:4
22,14:13
22,15:13
22,16:13
22,17:10
22,18:4
22,19:7
22,20:1
22,23:10
22,24:8
22,26:8
22,27:10
22,28:13
23,2:17
23,3:2
23,4:6
23,5:3
23,6:2
23,8:6
23,9:17
23,10:2
23,11:6
23,13:6
23,14:3
23,15:3
23,16:3
23,18:6
23,19:17
23,20:9
23,21:10
23,22:10
23,24:2
23,25:10
23,26:2
23,28:3
24,2:15
24,4:4
24,5:5
24,7:2
24,8:4
24,9:15
24,11:4
24,12:2
24,13:4
24,14:5
24,15:5
24,16:5
24,17:2
24,18:4
24,19:15
24,20:7
24,21:8
24,22:8
24,23:2
24,25:8
24,27:2
25,2:7
25,3:8
25,4:4
25,5:13
25,6:8
25,7:10
25,8:4
25,9:7
25,10:8
25,11:4
25,12:10
25,13:4
25,14:13
25,15:13
25,16:13
25,17:10
25,18:4
25,19:7
25,20:1
25,23:10
25,26:8
25,27:10
25,28:13
26,2:15
26,4:4
26,5:5
26,7:2
26,8:4
26,9:15
26,11:4
26,12:2
26,13:4
26,14:5
26,15:5
26,16:5
26,17:2
26,18:4
26,19:15
26,20:7
26,21:8
26,22:8
26,23:2
26,25:8
26,27:2
27,2:17
27,3:2
27,4:6
27,5:3
27,6:2
27,8:6
27,9:17
27,10:2
27,11:6
27,13:6
27,14:3
27,15:3
27,16:3
27,18:6
27,19:17
27,20:9
27,21:10
27,22:10
27,24:2
27,25:10
27,28:3

<setup times backward>
2,1:11
2,3:15
2,4:11
2,5:20
2,8:11
2,10:15
2,11:11
2,12:17
2,13:11
2,14:20
2,15:20
2,16:20
2,20:8
2,21:7
2,22:7
2,23:17
2,24:15
2,25:7
2,26:15
2,27:17
3,5:5
3,7:2
3,12:2
3,14:5
3,15:5
3,16:5
3,17:2
3,23:2
3,27:2
4,3:4
4,5:9
4,6:4
4,7:6
4,10:4
4,12:6
4,14:9
4,15:9
4,16:9
4,17:6
4,23:6
4,24:4
4,26:4
4,27:6
6,5:5
6,12:2
6,14:5
6,15:5
6,16:5
6,17:2
6,23:2
6,27:2
7,5:3
7,14:3
7,15:3
7,16:3
8,3:4
8,5:9
8,6:4
8,7:6
8,17:6
8,23:6
8,24:4
8,26:4
8,27:6
9,1:11
9,3:15
9,4:11
9,5:20
9,6:15
9,7:17
9,8:11
9,17:17
9,18:11
9,20:8
9,21:7
9,22:7
9,23:17
9,24:15
9,25:7
9,26:15
9,27:17
10,5:5
10,7:2
10,17:2
10,23:2
10,27:2
11,3:4
11,5:9
11,6:4
11,7:6
11,10:4
11,12:6
11,14:9
11,16:9
11,17:6
11,23:6
11,24:4
11,26:4
11,27:6
12,5:3
12,15:3
13,3:4
13,5:9
13,6:4
13,7:6
13,10:4
13,12:6
13,15:9
13,17:6
13,23:6
13,24:4
13,26:4
13,27:6
17,5:3
17,14:3
17,15:3
17,16:3
18,3:4
18,5:9
18,6:4
18,7:6
18,10:4
18,12:6
18,14:9
18,15:9
18,16:9
18,17:6
18,23:6
18,24:4
18,26:4
18,27:6
19,1:11
19,3:15
19,4:11
19,5:20
19,6:15
19,7:17
19,8:11
19,10:15
19,11:11
19,12:17
19,13:11
19,14:20
19,15:20
19,16:20
19,17:17
19,18:11
19,21:7
19,22:7
19,23:17
19,24:15
19,25:7
19,26:15
19,27:17
20,1:3
20,3:7
20,4:3
20,5:12
20,6:7
20,7:9
20,8:3
20,10:7
20,11:3
20,12:9
20,13:3
20,14:12
20,15:12
20,16:12
20,17:9
20,18:3
20,23:9
20,24:7
20,26:7
20,27:9
21,1:4
21,3:8
21,4:4
21,5:13
21,6:8
21,7:10
21,8:4
21,10:8
21,11:4
21,12:10
21,13:4
21,14:13
21,15:13
21,16:13
21,17:10
21,18:4
21,20:1
21,23:10
21,24:8
21,26:8
21,27:10
22,1:4
22,3:8
22,4:4
22,5:13
22,6:8
22,7:10
22,8:4
22,10:8
22,11:4
22,12:10
22,13:4
22,14:13
22,15:13
22,16:13
22,17:10
22,18:4
22,20:1
22,23:10
22,24:8
22,26:8
22,27:10
23,5:3
23,14:3
23,15:3
23,16:3
24,5:5
24,7:2
24,12:2
24,14:5
24,15:5
24,16:5
24,17:2
24,23:2
24,27:2
25,1:4
25,3:8
25,4:4
25,5:13
25,6:8
25,7:10
25,8:4
25,10:8
25,11:4
25,12:10
25,13:4
25,14:13
25,15:13
25,16:13
25,17:10
25,18:4
25,20:1
25,23:10
25,24:8
25,26:8
25,27:10
26,5:5
26,7:2
26,12:2
26,14:5
26,15:5
26,16:5
26,17:2
26,23:2
27,5:3
27,14:3
27,15:3
27,16:3

<end>

<optimal SALBP-1 value>
8


<rand seed>
467321153

<Lower Bounds>
Lm1=8
Lms1=8
Lm2=5
Lm3=7
Lm4=8
Best=8

<Optimal Stations (Iterations: 10)>
10
